61 70 2 6 7 45 5 3 1 100 55 
92 95 62 31 29 28 30 67 94 80 90 10 11 9 13 97 58 77 25 48 24 66 
83 64 23 21 51 85 63 76 18 19 49 22 20 84 50 34 27 26 32 33 89 56 91 
93 71 72 41 42 44 40 39 38 37 35 36 43 68 
81 54 96 
82 99 52 86 75 59 87 74 57 65 
69 98 88 53 12 14 47 15 16 17 78 73 79 8 46 4 60 
